pair_coeff     1 3 soft   0.                     0.	                                     # Bridge off soft
pair_coeff     1 5 soft   0.                     0.	                                     # Middle site off soft
pair_coeff     1 3 lj/cut $(v_epsilon3*v_kB*v_T) ${sigma}             $(v_sigma*2^(1/6)) # Bridge on
pair_coeff     1 4 lj/cut $(v_epsilon4*v_kB*v_T) ${sigma}             ${cutoff4}         # Top    site on
pair_coeff     1 5 lj/cut $(v_epsilon5*v_kB*v_T) ${sigma}             ${cutoff5}         # Middle site on
pair_coeff     1 6 lj/cut $(v_epsilon6*v_kB*v_T) ${sigma}             ${cutoff6}         # Lower  site on
angle_coeff    3 harmonic ${angle3kappa}         ${angle3angleATP}                       # Arms open
improper_coeff 2          ${improper2kappa}      ${improper2angleATP}                    # Lower compartment folds
improper_coeff 3          ${improper3kappa}      ${improper3angleATP}                    # Lower compartment folds
